50 1225
1 2 53
1 3 62
1 4 6
1 5 102
1 6 77
1 7 98
1 8 145
1 9 115
1 10 53
1 11 110
1 12 149
1 13 143
1 14 56
1 15 82
1 16 47
1 17 117
1 18 12
1 19 47
1 20 16
1 21 12
1 22 114
1 23 76
1 24 83
1 25 147
1 26 51
1 27 99
1 28 81
1 29 44
1 30 145
1 31 112
1 32 70
1 33 128
1 34 78
1 35 96
1 36 119
1 37 102
1 38 79
1 39 52
1 40 140
1 41 112
1 42 46
1 43 40
1 44 51
1 45 63
1 46 121
1 47 70
1 48 54
1 49 112
1 50 24
2 3 101
2 4 22
2 5 59
2 6 57
2 7 64
2 8 11
2 9 23
2 10 102
2 11 86
2 12 106
2 13 7
2 14 123
2 15 33
2 16 121
2 17 128
2 18 86
2 19 24
2 20 128
2 21 134
2 22 68
2 23 3
2 24 39
2 25 86
2 26 132
2 27 15
2 28 109
2 29 7
2 30 137
2 31 106
2 32 49
2 33 75
2 34 62
2 35 96
2 36 89
2 37 38
2 38 41
2 39 37
2 40 147
2 41 37
2 42 73
2 43 144
2 44 36
2 45 41
2 46 88
2 47 6
2 48 75
2 49 107
2 50 57
3 4 17
3 5 77
3 6 91
3 7 69
3 8 8
3 9 63
3 10 29
3 11 4
3 12 4
3 13 6
3 14 78
3 15 13
3 16 38
3 17 12
3 18 18
3 19 28
3 20 43
3 21 56
3 22 39
3 23 10
3 24 82
3 25 122
3 26 95
3 27 73
3 28 70
3 29 9
3 30 32
3 31 133
3 32 122
3 33 131
3 34 96
3 35 97
3 36 20
3 37 35
3 38 90
3 39 146
3 40 129
3 41 65
3 42 43
3 43 140
3 44 60
3 45 96
3 46 83
3 47 94
3 48 57
3 49 67
3 50 86
4 5 97
4 6 33
4 7 37
4 8 109
4 9 78
4 10 2
4 11 125
4 12 97
4 13 9
4 14 56
4 15 63
4 16 41
4 17 75
4 18 143
4 19 91
4 20 23
4 21 32
4 22 0
4 23 127
4 24 55
4 25 140
4 26 53
4 27 131
4 28 124
4 29 113
4 30 124
4 31 39
4 32 85
4 33 29
4 34 34
4 35 43
4 36 92
4 37 80
4 38 60
4 39 60
4 40 28
4 41 127
4 42 78
4 43 148
4 44 44
4 45 82
4 46 128
4 47 69
4 48 27
4 49 49
4 50 31
5 6 100
5 7 83
5 8 88
5 9 0
5 10 53
5 11 52
5 12 126
5 13 136
5 14 97
5 15 18
5 16 79
5 17 116
5 18 140
5 19 35
5 20 25
5 21 143
5 22 120
5 23 90
5 24 85
5 25 110
5 26 45
5 27 85
5 28 126
5 29 98
5 30 96
5 31 79
5 32 35
5 33 138
5 34 112
5 35 132
5 36 146
5 37 100
5 38 9
5 39 65
5 40 21
5 41 145
5 42 100
5 43 47
5 44 137
5 45 84
5 46 118
5 47 114
5 48 11
5 49 28
5 50 47
6 7 47
6 8 37
6 9 78
6 10 146
6 11 134
6 12 99
6 13 73
6 14 62
6 15 119
6 16 54
6 17 53
6 18 18
6 19 142
6 20 148
6 21 1
6 22 13
6 23 84
6 24 76
6 25 10
6 26 106
6 27 115
6 28 142
6 29 11
6 30 92
6 31 117
6 32 131
6 33 82
6 34 141
6 35 80
6 36 24
6 37 102
6 38 74
6 39 23
6 40 34
6 41 41
6 42 87
6 43 1
6 44 19
6 45 148
6 46 107
6 47 61
6 48 31
6 49 128
6 50 44
7 8 24
7 9 16
7 10 57
7 11 62
7 12 45
7 13 95
7 14 88
7 15 26
7 16 67
7 17 48
7 18 74
7 19 40
7 20 107
7 21 117
7 22 145
7 23 9
7 24 98
7 25 4
7 26 102
7 27 17
7 28 26
7 29 0
7 30 95
7 31 30
7 32 76
7 33 6
7 34 122
7 35 52
7 36 96
7 37 111
7 38 51
7 39 87
7 40 104
7 41 99
7 42 57
7 43 60
7 44 84
7 45 76
7 46 24
7 47 63
7 48 86
7 49 45
7 50 132
8 9 104
8 10 2
8 11 23
8 12 45
8 13 132
8 14 3
8 15 139
8 16 22
8 17 59
8 18 20
8 19 148
8 20 148
8 21 7
8 22 59
8 23 65
8 24 126
8 25 40
8 26 47
8 27 105
8 28 97
8 29 37
8 30 31
8 31 65
8 32 7
8 33 147
8 34 143
8 35 104
8 36 12
8 37 147
8 38 3
8 39 34
8 40 45
8 41 142
8 42 69
8 43 64
8 44 51
8 45 24
8 46 55
8 47 86
8 48 1
8 49 44
8 50 57
9 10 12
9 11 132
9 12 87
9 13 88
9 14 56
9 15 128
9 16 37
9 17 106
9 18 135
9 19 21
9 20 34
9 21 142
9 22 127
9 23 132
9 24 133
9 25 56
9 26 96
9 27 136
9 28 84
9 29 62
9 30 46
9 31 28
9 32 101
9 33 137
9 34 51
9 35 86
9 36 30
9 37 40
9 38 88
9 39 145
9 40 52
9 41 63
9 42 126
9 43 119
9 44 143
9 45 47
9 46 41
9 47 7
9 48 64
9 49 48
9 50 74
10 11 49
10 12 126
10 13 52
10 14 15
10 15 30
10 16 26
10 17 17
10 18 23
10 19 92
10 20 89
10 21 85
10 22 25
10 23 67
10 24 47
10 25 148
10 26 6
10 27 57
10 28 29
10 29 148
10 30 24
10 31 22
10 32 88
10 33 78
10 34 66
10 35 138
10 36 91
10 37 54
10 38 19
10 39 126
10 40 21
10 41 49
10 42 115
10 43 140
10 44 139
10 45 29
10 46 82
10 47 61
10 48 7
10 49 61
10 50 0
11 12 88
11 13 16
11 14 62
11 15 99
11 16 55
11 17 97
11 18 71
11 19 6
11 20 46
11 21 82
11 22 95
11 23 7
11 24 32
11 25 82
11 26 133
11 27 54
11 28 45
11 29 54
11 30 15
11 31 119
11 32 115
11 33 33
11 34 131
11 35 119
11 36 82
11 37 116
11 38 44
11 39 108
11 40 138
11 41 21
11 42 82
11 43 15
11 44 21
11 45 66
11 46 42
11 47 47
11 48 9
11 49 31
11 50 142
12 13 66
12 14 144
12 15 96
12 16 128
12 17 92
12 18 68
12 19 72
12 20 91
12 21 137
12 22 54
12 23 36
12 24 105
12 25 73
12 26 7
12 27 137
12 28 88
12 29 133
12 30 87
12 31 101
12 32 24
12 33 110
12 34 43
12 35 131
12 36 127
12 37 106
12 38 148
12 39 139
12 40 78
12 41 77
12 42 31
12 43 103
12 44 65
12 45 30
12 46 105
12 47 110
12 48 23
12 49 52
12 50 59
13 14 41
13 15 102
13 16 23
13 17 120
13 18 9
13 19 60
13 20 91
13 21 23
13 22 31
13 23 49
13 24 78
13 25 37
13 26 22
13 27 26
13 28 42
13 29 98
13 30 81
13 31 77
13 32 43
13 33 134
13 34 124
13 35 44
13 36 26
13 37 108
13 38 106
13 39 127
13 40 82
13 41 61
13 42 51
13 43 79
13 44 34
13 45 10
13 46 35
13 47 22
13 48 75
13 49 7
13 50 100
14 15 36
14 16 28
14 17 0
14 18 103
14 19 79
14 20 43
14 21 110
14 22 38
14 23 61
14 24 119
14 25 27
14 26 67
14 27 44
14 28 142
14 29 115
14 30 77
14 31 37
14 32 78
14 33 103
14 34 13
14 35 40
14 36 42
14 37 28
14 38 14
14 39 73
14 40 90
14 41 148
14 42 125
14 43 21
14 44 133
14 45 100
14 46 66
14 47 85
14 48 39
14 49 5
14 50 103
15 16 32
15 17 5
15 18 134
15 19 2
15 20 73
15 21 13
15 22 6
15 23 28
15 24 140
15 25 12
15 26 114
15 27 112
15 28 88
15 29 119
15 30 5
15 31 149
15 32 3
15 33 75
15 34 109
15 35 24
15 36 126
15 37 38
15 38 3
15 39 26
15 40 36
15 41 132
15 42 137
15 43 35
15 44 51
15 45 92
15 46 98
15 47 64
15 48 144
15 49 122
15 50 143
16 17 16
16 18 140
16 19 142
16 20 133
16 21 42
16 22 46
16 23 128
16 24 78
16 25 74
16 26 87
16 27 112
16 28 38
16 29 93
16 30 38
16 31 102
16 32 92
16 33 73
16 34 48
16 35 77
16 36 39
16 37 34
16 38 111
16 39 136
16 40 125
16 41 92
16 42 46
16 43 32
16 44 137
16 45 17
16 46 21
16 47 94
16 48 24
16 49 22
16 50 36
17 18 140
17 19 93
17 20 21
17 21 128
17 22 19
17 23 87
17 24 130
17 25 81
17 26 74
17 27 93
17 28 108
17 29 112
17 30 1
17 31 22
17 32 86
17 33 76
17 34 133
17 35 50
17 36 42
17 37 30
17 38 113
17 39 79
17 40 40
17 41 10
17 42 58
17 43 49
17 44 136
17 45 64
17 46 104
17 47 123
17 48 88
17 49 136
17 50 95
18 19 26
18 20 83
18 21 25
18 22 123
18 23 11
18 24 125
18 25 46
18 26 19
18 27 31
18 28 116
18 29 149
18 30 124
18 31 99
18 32 70
18 33 70
18 34 115
18 35 135
18 36 76
18 37 104
18 38 12
18 39 1
18 40 144
18 41 37
18 42 92
18 43 22
18 44 61
18 45 77
18 46 135
18 47 125
18 48 87
18 49 121
18 50 27
19 20 5
19 21 146
19 22 11
19 23 97
19 24 107
19 25 13
19 26 113
19 27 90
19 28 137
19 29 60
19 30 1
19 31 66
19 32 33
19 33 86
19 34 108
19 35 11
19 36 25
19 37 34
19 38 67
19 39 117
19 40 92
19 41 90
19 42 9
19 43 18
19 44 84
19 45 123
19 46 19
19 47 121
19 48 45
19 49 138
19 50 132
20 21 94
20 22 58
20 23 19
20 24 11
20 25 126
20 26 46
20 27 32
20 28 42
20 29 35
20 30 115
20 31 9
20 32 70
20 33 9
20 34 10
20 35 120
20 36 70
20 37 130
20 38 26
20 39 0
20 40 106
20 41 74
20 42 6
20 43 60
20 44 71
20 45 15
20 46 97
20 47 114
20 48 96
20 49 131
20 50 4
21 22 69
21 23 90
21 24 53
21 25 86
21 26 146
21 27 51
21 28 116
21 29 14
21 30 26
21 31 54
21 32 4
21 33 37
21 34 64
21 35 20
21 36 53
21 37 135
21 38 122
21 39 122
21 40 97
21 41 133
21 42 54
21 43 74
21 44 95
21 45 128
21 46 19
21 47 149
21 48 48
21 49 122
21 50 2
22 23 126
22 24 76
22 25 95
22 26 89
22 27 65
22 28 62
22 29 149
22 30 100
22 31 93
22 32 68
22 33 26
22 34 112
22 35 22
22 36 104
22 37 145
22 38 66
22 39 76
22 40 109
22 41 76
22 42 133
22 43 148
22 44 9
22 45 49
22 46 128
22 47 107
22 48 101
22 49 115
22 50 146
23 24 67
23 25 136
23 26 145
23 27 39
23 28 62
23 29 0
23 30 89
23 31 101
23 32 47
23 33 114
23 34 2
23 35 14
23 36 112
23 37 69
23 38 11
23 39 14
23 40 149
23 41 132
23 42 112
23 43 49
23 44 116
23 45 120
23 46 139
23 47 46
23 48 138
23 49 15
23 50 62
24 25 43
24 26 112
24 27 57
24 28 104
24 29 122
24 30 73
24 31 74
24 32 16
24 33 145
24 34 40
24 35 85
24 36 137
24 37 143
24 38 61
24 39 135
24 40 57
24 41 2
24 42 96
24 43 77
24 44 87
24 45 14
24 46 142
24 47 146
24 48 118
24 49 141
24 50 68
25 26 37
25 27 114
25 28 146
25 29 32
25 30 1
25 31 134
25 32 72
25 33 64
25 34 80
25 35 116
25 36 129
25 37 20
25 38 39
25 39 46
25 40 128
25 41 90
25 42 27
25 43 30
25 44 54
25 45 55
25 46 40
25 47 16
25 48 13
25 49 90
25 50 128
26 27 18
26 28 114
26 29 119
26 30 115
26 31 124
26 32 135
26 33 6
26 34 82
26 35 11
26 36 78
26 37 133
26 38 52
26 39 142
26 40 119
26 41 94
26 42 71
26 43 139
26 44 113
26 45 89
26 46 47
26 47 27
26 48 61
26 49 49
26 50 100
27 28 124
27 29 64
27 30 101
27 31 5
27 32 64
27 33 102
27 34 30
27 35 2
27 36 73
27 37 5
27 38 19
27 39 29
27 40 85
27 41 37
27 42 6
27 43 53
27 44 66
27 45 118
27 46 7
27 47 149
27 48 68
27 49 127
27 50 31
28 29 70
28 30 34
28 31 34
28 32 31
28 33 89
28 34 37
28 35 42
28 36 117
28 37 5
28 38 114
28 39 103
28 40 119
28 41 76
28 42 84
28 43 91
28 44 136
28 45 24
28 46 49
28 47 17
28 48 120
28 49 34
28 50 29
29 30 123
29 31 120
29 32 149
29 33 149
29 34 73
29 35 102
29 36 125
29 37 52
29 38 100
29 39 91
29 40 112
29 41 137
29 42 57
29 43 11
29 44 46
29 45 19
29 46 123
29 47 127
29 48 145
29 49 66
29 50 14
30 31 42
30 32 115
30 33 128
30 34 82
30 35 125
30 36 121
30 37 92
30 38 59
30 39 31
30 40 34
30 41 53
30 42 119
30 43 2
30 44 62
30 45 81
30 46 61
30 47 117
30 48 24
30 49 44
30 50 136
31 32 137
31 33 74
31 34 21
31 35 54
31 36 93
31 37 130
31 38 53
31 39 53
31 40 66
31 41 76
31 42 81
31 43 8
31 44 100
31 45 2
31 46 148
31 47 65
31 48 140
31 49 58
31 50 115
32 33 37
32 34 113
32 35 37
32 36 120
32 37 22
32 38 24
32 39 32
32 40 118
32 41 104
32 42 136
32 43 134
32 44 11
32 45 61
32 46 83
32 47 3
32 48 19
32 49 103
32 50 118
33 34 72
33 35 6
33 36 69
33 37 53
33 38 57
33 39 48
33 40 34
33 41 11
33 42 2
33 43 23
33 44 5
33 45 113
33 46 36
33 47 98
33 48 121
33 49 86
33 50 121
34 35 77
34 36 8
34 37 106
34 38 32
34 39 65
34 40 104
34 41 4
34 42 87
34 43 21
34 44 88
34 45 79
34 46 67
34 47 49
34 48 36
34 49 145
34 50 132
35 36 144
35 37 94
35 38 129
35 39 47
35 40 143
35 41 13
35 42 140
35 43 146
35 44 111
35 45 51
35 46 83
35 47 110
35 48 15
35 49 124
35 50 28
36 37 19
36 38 74
36 39 83
36 40 75
36 41 126
36 42 21
36 43 4
36 44 123
36 45 62
36 46 42
36 47 22
36 48 142
36 49 118
36 50 131
37 38 115
37 39 67
37 40 139
37 41 11
37 42 132
37 43 123
37 44 20
37 45 142
37 46 95
37 47 47
37 48 19
37 49 80
37 50 103
38 39 45
38 40 49
38 41 79
38 42 23
38 43 52
38 44 124
38 45 96
38 46 138
38 47 85
38 48 47
38 49 40
38 50 20
39 40 64
39 41 133
39 42 123
39 43 119
39 44 98
39 45 34
39 46 4
39 47 2
39 48 108
39 49 125
39 50 37
40 41 45
40 42 143
40 43 123
40 44 94
40 45 73
40 46 65
40 47 31
40 48 127
40 49 122
40 50 68
41 42 133
41 43 77
41 44 18
41 45 135
41 46 39
41 47 1
41 48 87
41 49 118
41 50 149
42 43 76
42 44 146
42 45 118
42 46 84
42 47 24
42 48 137
42 49 45
42 50 130
43 44 89
43 45 10
43 46 42
43 47 55
43 48 70
43 49 37
43 50 57
44 45 31
44 46 21
44 47 134
44 48 93
44 49 92
44 50 96
45 46 16
45 47 95
45 48 56
45 49 61
45 50 33
46 47 74
46 48 5
46 49 9
46 50 43
47 48 64
47 49 67
47 50 61
48 49 107
48 50 136
49 50 33
